decision_x1=[0,2];
decision_x2=[0,2];
decision_x3=[0,2];
decision_x4=[0,2];
decision_x5=[0,2];
decision_x6=[0,2];
decision_x7=[0,2];
decision_x8=[0,2];
decision_x9=[0,2];
decision_x10=[0,2];
decision_x11=[0,2];
decision_x12=[0,2];
decision_x13=[0,2];
decision_x14=[0,2];
decision_x15=[0,2];
random_y1=[0,2];
random_y2=[0,2];
random_y3=[0,2];
constraint_x2_x1=[
0,0,7.4|
0,1,7|
0,2,1.9|
1,0,4.6|
1,1,8.1|
1,2,4.1|
2,0,6.8|
2,1,1.5|
2,2,1.7|
];
constraint_x4_x1=[
0,0,2.8|
0,1,2.7|
0,2,7.9|
1,0,9.9|
1,1,6.8|
1,2,6.5|
2,0,6|
2,1,1.7|
2,2,7.2|
];
constraint_x4_x2=[
0,0,9.7|
0,1,9.5|
0,2,2.8|
1,0,2.9|
1,1,6.7|
1,2,7.8|
2,0,0.26|
2,1,7|
2,2,7.4|
];
constraint_x5_x1=[
0,0,6.8|
0,1,3.9|
0,2,7.1|
1,0,6.7|
1,1,3.4|
1,2,4.2|
2,0,5.7|
2,1,3.8|
2,2,5.1|
];
constraint_x5_x4=[
0,0,8.1|
0,1,6.6|
0,2,0.18|
1,0,8.4|
1,1,10|
1,2,7|
2,0,9.3|
2,1,3.9|
2,2,3.4|
];
constraint_x6_x2=[
0,0,4.7|
0,1,6|
0,2,3.2|
1,0,9|
1,1,1.6|
1,2,5.7|
2,0,5.9|
2,1,9.4|
2,2,2.1|
];
constraint_x6_x4=[
0,0,4.6|
0,1,5.1|
0,2,7.5|
1,0,6.9|
1,1,0.69|
1,2,6.6|
2,0,6.7|
2,1,4.2|
2,2,1.6|
];
constraint_x7_x1=[
0,0,1.4|
0,1,9.1|
0,2,0.23|
1,0,5.8|
1,1,2.1|
1,2,6.7|
2,0,1.2|
2,1,8.8|
2,2,5.6|
];
constraint_x7_x2=[
0,0,4.2|
0,1,0.69|
0,2,8.5|
1,0,1|
1,1,6.2|
1,2,8.2|
2,0,4|
2,1,3.8|
2,2,0.37|
];
constraint_x7_x4=[
0,0,2.1|
0,1,7.7|
0,2,9.5|
1,0,5.3|
1,1,9|
1,2,4.9|
2,0,4.8|
2,1,9.1|
2,2,5.5|
];
constraint_x8_x1=[
0,0,4.3|
0,1,3.6|
0,2,5.6|
1,0,9.4|
1,1,5.2|
1,2,6.4|
2,0,0.54|
2,1,0.66|
2,2,6.3|
];
constraint_x8_x2=[
0,0,4.6|
0,1,7.8|
0,2,0.1|
1,0,9.5|
1,1,0.99|
1,2,4.6|
2,0,8.2|
2,1,5.2|
2,2,8.5|
];
constraint_x8_x4=[
0,0,9.8|
0,1,7.6|
0,2,4.6|
1,0,1.4|
1,1,5.1|
1,2,3.2|
2,0,8.6|
2,1,9.9|
2,2,6.3|
];
constraint_x8_x6=[
0,0,8.8|
0,1,6.9|
0,2,5|
1,0,8.6|
1,1,4.5|
1,2,9.1|
2,0,2.5|
2,1,9.9|
2,2,2|
];
constraint_x9_x2=[
0,0,1.2|
0,1,0.81|
0,2,5.1|
1,0,6|
1,1,1.1|
1,2,6.2|
2,0,4.7|
2,1,4.7|
2,2,7|
];
constraint_x9_x4=[
0,0,6.9|
0,1,4|
0,2,3.3|
1,0,6.2|
1,1,3.3|
1,2,6.4|
2,0,4.7|
2,1,8.6|
2,2,6|
];
constraint_x9_x8=[
0,0,4|
0,1,3.1|
0,2,10|
1,0,1.7|
1,1,3.7|
1,2,5.5|
2,0,7.3|
2,1,0.91|
2,2,2.9|
];
constraint_x10_x2=[
0,0,9.3|
0,1,4.8|
0,2,4.3|
1,0,1.8|
1,1,6.4|
1,2,9.8|
2,0,7.5|
2,1,6.3|
2,2,5.9|
];
constraint_x10_x3=[
0,0,2.1|
0,1,2.7|
0,2,6.7|
1,0,7.2|
1,1,0.61|
1,2,8.8|
2,0,6.9|
2,1,0.046|
2,2,8.1|
];
constraint_x10_x7=[
0,0,5.7|
0,1,6|
0,2,2.3|
1,0,3.3|
1,1,3.2|
1,2,8.4|
2,0,3.6|
2,1,3.2|
2,2,2.3|
];
constraint_x10_x8=[
0,0,6.2|
0,1,3.7|
0,2,6.7|
1,0,6.9|
1,1,0.88|
1,2,5.2|
2,0,7.1|
2,1,9|
2,2,3.9|
];
constraint_x11_x2=[
0,0,5.4|
0,1,3.1|
0,2,7.9|
1,0,7.6|
1,1,5.3|
1,2,4.3|
2,0,3.2|
2,1,1.8|
2,2,3.4|
];
constraint_x11_x4=[
0,0,0.39|
0,1,5.9|
0,2,1.8|
1,0,3.2|
1,1,7.5|
1,2,4|
2,0,0.77|
2,1,2.9|
2,2,0.59|
];
constraint_x11_x9=[
0,0,2.4|
0,1,2.5|
0,2,5.1|
1,0,5.1|
1,1,0.43|
1,2,9.1|
2,0,0.044|
2,1,9.9|
2,2,5|
];
constraint_x11_x10=[
0,0,6.7|
0,1,8.1|
0,2,7.8|
1,0,9.4|
1,1,7.5|
1,2,3.5|
2,0,1.1|
2,1,9.5|
2,2,0.57|
];
constraint_x12_x1=[
0,0,8|
0,1,7.1|
0,2,6.2|
1,0,2.7|
1,1,4.7|
1,2,3.1|
2,0,9|
2,1,2.4|
2,2,4.2|
];
constraint_x12_x2=[
0,0,1.9|
0,1,5.5|
0,2,1.4|
1,0,0.079|
1,1,5.2|
1,2,8.7|
2,0,0.16|
2,1,7.3|
2,2,5.1|
];
constraint_x12_x5=[
0,0,6|
0,1,8.6|
0,2,1.6|
1,0,9.5|
1,1,8|
1,2,9.3|
2,0,2.2|
2,1,4.4|
2,2,1|
];
constraint_x12_x6=[
0,0,3.9|
0,1,0.8|
0,2,3.1|
1,0,6.1|
1,1,4.5|
1,2,9|
2,0,8.3|
2,1,3.9|
2,2,0.54|
];
constraint_x12_x10=[
0,0,3.9|
0,1,5.3|
0,2,2.9|
1,0,8.1|
1,1,10|
1,2,5.9|
2,0,8|
2,1,4.2|
2,2,8.1|
];
constraint_x12_x11=[
0,0,2.2|
0,1,1.4|
0,2,6.5|
1,0,2.8|
1,1,1.6|
1,2,2.2|
2,0,5.4|
2,1,7.4|
2,2,3.1|
];
constraint_x13_x1=[
0,0,7.1|
0,1,5.2|
0,2,4.8|
1,0,9.9|
1,1,7.9|
1,2,5.2|
2,0,6.6|
2,1,1.1|
2,2,7.3|
];
constraint_x13_x3=[
0,0,2.2|
0,1,9.8|
0,2,0.93|
1,0,8.9|
1,1,4|
1,2,7.7|
2,0,8.1|
2,1,5.1|
2,2,3.2|
];
constraint_x13_x4=[
0,0,0.25|
0,1,1.4|
0,2,6.3|
1,0,0.71|
1,1,2.3|
1,2,9.6|
2,0,8.1|
2,1,5.5|
2,2,0.83|
];
constraint_x13_x5=[
0,0,2.3|
0,1,7.3|
0,2,7.4|
1,0,0.58|
1,1,9.6|
1,2,7.5|
2,0,1.1|
2,1,9|
2,2,1.2|
];
constraint_x13_x9=[
0,0,0.29|
0,1,1.7|
0,2,6.6|
1,0,6.7|
1,1,8|
1,2,4.6|
2,0,4.9|
2,1,5.9|
2,2,7.9|
];
constraint_x13_x10=[
0,0,8.6|
0,1,4.8|
0,2,2.9|
1,0,7.2|
1,1,3.9|
1,2,3|
2,0,0.31|
2,1,6.4|
2,2,5.1|
];
constraint_x13_x11=[
0,0,9.4|
0,1,8.2|
0,2,6.3|
1,0,6.3|
1,1,5.7|
1,2,7.5|
2,0,3.7|
2,1,0.24|
2,2,2|
];
constraint_x13_x12=[
0,0,4.3|
0,1,2.7|
0,2,7.4|
1,0,5.3|
1,1,6.3|
1,2,0.61|
2,0,8.1|
2,1,1.6|
2,2,7.4|
];
constraint_x14_x1=[
0,0,6.2|
0,1,8.9|
0,2,5.8|
1,0,9|
1,1,0.56|
1,2,8.8|
2,0,5|
2,1,9.2|
2,2,2.6|
];
constraint_x14_x3=[
0,0,2.4|
0,1,0.61|
0,2,1.5|
1,0,7.6|
1,1,6|
1,2,8.7|
2,0,1.6|
2,1,7.5|
2,2,0.035|
];
constraint_x14_x8=[
0,0,5.1|
0,1,2.2|
0,2,10|
1,0,3.1|
1,1,0.29|
1,2,0.43|
2,0,2.2|
2,1,7.6|
2,2,1.8|
];
constraint_x14_x9=[
0,0,0.13|
0,1,4.6|
0,2,1.1|
1,0,4|
1,1,3.7|
1,2,1.9|
2,0,7.8|
2,1,5.3|
2,2,6.2|
];
constraint_x14_x10=[
0,0,4.8|
0,1,7.7|
0,2,4.6|
1,0,1.1|
1,1,0.38|
1,2,9.5|
2,0,3.7|
2,1,9.5|
2,2,2.4|
];
constraint_x14_x11=[
0,0,9.5|
0,1,3|
0,2,0.51|
1,0,5.3|
1,1,4.9|
1,2,8.1|
2,0,2|
2,1,4.4|
2,2,1.2|
];
constraint_x14_x12=[
0,0,2.8|
0,1,1.2|
0,2,4.6|
1,0,7.4|
1,1,1.5|
1,2,4.5|
2,0,6.3|
2,1,9.1|
2,2,2.8|
];
constraint_x14_x13=[
0,0,5.5|
0,1,6.6|
0,2,2.3|
1,0,5.9|
1,1,1.2|
1,2,7.6|
2,0,6.1|
2,1,3.8|
2,2,9.9|
];
constraint_x15_x1=[
0,0,8.5|
0,1,9.6|
0,2,8.2|
1,0,4.1|
1,1,4.6|
1,2,5.6|
2,0,6.9|
2,1,6.2|
2,2,6|
];
constraint_x15_x2=[
0,0,9.6|
0,1,6.3|
0,2,1.3|
1,0,7.7|
1,1,4.7|
1,2,2|
2,0,9.2|
2,1,1.7|
2,2,3.3|
];
constraint_x15_x3=[
0,0,0.28|
0,1,0.65|
0,2,8.1|
1,0,6.5|
1,1,0.29|
1,2,3.7|
2,0,0.71|
2,1,4.6|
2,2,4.4|
];
constraint_x15_x10=[
0,0,9.5|
0,1,0.77|
0,2,5.4|
1,0,7.8|
1,1,8.7|
1,2,8.3|
2,0,1|
2,1,2.6|
2,2,1|
];
constraint_x15_x11=[
0,0,7.9|
0,1,6.4|
0,2,7.9|
1,0,4.5|
1,1,2|
1,2,9.6|
2,0,1.5|
2,1,4.3|
2,2,5.2|
];
constraint_x15_x12=[
0,0,2|
0,1,4.3|
0,2,5.7|
1,0,9.6|
1,1,3.6|
1,2,9.3|
2,0,4.9|
2,1,5|
2,2,7.4|
];
constraint_x1_y1=[
0,0,1.7|
0,1,9.2|
0,2,4.5|
1,0,0.15|
1,1,5.7|
1,2,5.1|
2,0,5.5|
2,1,9.9|
2,2,6.3|
];
constraint_x2_y2=[
0,0,5|
0,1,3.1|
0,2,7.8|
1,0,1.1|
1,1,1.4|
1,2,5.1|
2,0,3.5|
2,1,7.5|
2,2,7.2|
];
constraint_x3_y3=[
0,0,1.8|
0,1,1.8|
0,2,0.13|
1,0,3.7|
1,1,4.9|
1,2,4.6|
2,0,7.8|
2,1,4.6|
2,2,3.1|
];
initial_distribution_y1=[0.85,0.094,0.059];
initial_distribution_y2=[0.062,0.9,0.039];
initial_distribution_y3=[0.23,0.47,0.3];
transition_y1=[
0.45,0.34,0.22|
0.2,0.42,0.38|
0.56,0.25,0.18|
];
transition_y2=[
0.28,0.22,0.5|
0.43,0.1,0.47|
0.1,0.43,0.47|
];
transition_y3=[
0.29,0.32,0.39|
0.57,0.1,0.33|
0.14,0.43,0.42|
];
